c WARNING: for repeatability, setting FPU to use double precision
d VARIABLES            60144        
d CONSTRAINTS          257571       
c ============================[ Problem Statistics ]=============================
c |                                                                             |
c |  Number of variables:         60144                                         |
c |  Number of clauses:          257571                                         |
c |  Parse time:                   0.04 s                                       |
c |                                                                             |
c ============================[ Search Statistics ]==============================
c | Conflicts |          ORIGINAL         |          LEARNT          | Progress |
c |           |    Vars  Clauses Literals |    Limit  Clauses Lit/Cl |          |
c ===============================================================================
c |       100 |   48358   224083   546026 |    82163      100     11 | 19.596 % |
c |       250 |   48358   224083   546026 |    90380      250     47 | 19.596 % |
c |       475 |   48358   224083   546026 |    99418      475     47 | 19.596 % |
c |       812 |   48358   224083   546026 |   109359      812     72 | 19.596 % |
c |      1318 |   48358   224083   546026 |   120295     1318     63 | 19.596 % |
c |      2077 |   48358   224083   546026 |   132325     2077     62 | 19.596 % |
c |      3216 |   48358   224083   546026 |   145558     3216     78 | 19.596 % |
c |      4924 |   48358   224083   546026 |   160113     4924     85 | 19.596 % |
c |      7486 |   48358   224083   546026 |   176125     7486    112 | 19.596 % |
c |     11330 |   48358   224083   546026 |   193737    11330    137 | 19.596 % |
c |     17096 |   48358   224083   546026 |   213111    17096    141 | 19.596 % |
c |     25745 |   48358   224083   546026 |   234422    25745    153 | 19.596 % |
c |     38719 |   48358   224083   546026 |   257865    38719    169 | 19.596 % |
c |     58180 |   48358   224083   546026 |   283651    58180    205 | 19.596 % |
c |     87372 |   48358   224083   546026 |   312016    87372    193 | 19.596 % |
c |    131161 |   48358   224083   546026 |   343218   131161    188 | 19.596 % |
c |    196845 |   48358   224083   546026 |   377540   196845    201 | 19.596 % |
c |    295371 |   48358   224083   546026 |   415294   295371    215 | 19.596 % |
c |    443160 |   48358   224083   546026 |   456823    37332    123 | 19.596 % |
c |    664843 |   48358   224083   546026 |   502506   259015    128 | 19.596 % |
c |    997368 |   48358   224083   546026 |   552756   111143    115 | 19.596 % |
c |   1496156 |   48358   224083   546026 |   608032    78484     96 | 19.596 % |
c ===============================================================================
c restarts              : 3801
c conflicts             : 1943448        (1083 /sec)
c decisions             : 4043213        (0.00 % random) (2253 /sec)
c propagations          : 1789539777     (997096 /sec)
c conflict literals     : 266869412      (33.42 % deleted)
d RESTARTS             3801
d FAILURES             1943448      
d NODES                4043213      
d BACKTRACKS           4043213      
d PROPAGATIONS         1789539777   
d NOGOODSIZE           137.32 
d MEMORY               695.00 
d TIME                 1794.75 

s UNKNOWN
